# Solution for model r3_t18_m1_2 Batch Number: 3
# Finished Task: 18 / 18
# Makespan: 594.0, Total Distance: 606.0, Total Time: 1.3587
# R O S F Batch
0 0 20 0.0 0.0 -1
1 1 12 0.0 0.0 -1
2 2 3 0.0 0.0 -1
3 2 19 74.0 97.0 0
4 1 18 290.0 326.0 0
5 2 15 498.0 529.0 2
6 1 4 207.0 242.0 0
7 2 5 442.0 478.0 2
8 1 6 163.0 198.0 0
9 2 14 256.0 278.0 0
10 2 9 200.0 229.0 0
11 0 -1 561.0 594.0 2
12 1 8 89.0 115.0 0
13 1 -1 555.0 594.0 2
14 2 7 333.0 367.0 0
15 2 -1 540.0 561.0 2
16 1 13 404.0 425.0 1
17 0 11 236.0 256.0 0
18 1 16 333.0 367.0 0
19 2 10 171.0 199.0 0
20 0 17 169.0 203.0 0
